NAME: ACTUAL_TOURS/amz2043
TYPE: TOUR
COMMENT: RouteID_d89b4f05-7940-4a12-8c14-20de8850b940
DIMENSION: 174
TOUR_SECTION
1
138
3
23
87
147
72
28
131
2
116
76
32
158
106
134
64
51
119
152
12
45
73
128
92
172
80
110
27
139
70
9
137
22
69
39
11
141
156
100
29
53
33
78
160
153
93
15
102
108
99
104
94
43
52
62
112
162
170
6
173
111
85
150
142
49
120
65
90
133
68
4
163
148
121
60
126
57
7
149
144
47
18
13
71
14
79
5
145
74
103
166
40
81
122
44
35
48
159
136
97
165
88
55
42
140
169
10
117
61
123
82
118
36
98
86
31
115
58
38
17
127
114
155
89
125
95
46
56
132
96
54
143
135
105
21
83
161
19
174
20
50
63
109
41
75
129
157
164
171
34
25
16
77
8
124
67
130
59
146
66
107
151
154
84
30
113
167
26
168
91
101
37
24
-1
EOF
